Running for instance ./models/c206.txt
Generating routes...
Execution time:  0.135304316667  minutes
Academic license - for non-commercial use only
Warning: constraint name "Cliente esta na rota" has a space
Optimize a model with 26 rows, 5000 columns and 35083 nonzeros
Variable types: 0 continuous, 5000 integer (0 binary)
Coefficient statistics:
  Matrix range     [1e+00, 1e+00]
  Objective range  [4e+01, 3e+02]
  Bounds range     [1e+00, 1e+00]
  RHS range        [1e+00, 2e+01]
Found heuristic solution: objective 595.9743224
Presolve removed 1 rows and 2349 columns
Presolve time: 0.03s
Presolved: 25 rows, 2651 columns, 19057 nonzeros
Found heuristic solution: objective 493.4309192
Variable types: 0 continuous, 2651 integer (2651 binary)

Root relaxation: objective 3.035118e+02, 93 iterations, 0.00 seconds

    Nodes    |    Current Node    |     Objective Bounds      |     Work
 Expl Unexpl |  Obj  Depth IntInf | Incumbent    BestBd   Gap | It/Node Time

     0     0  303.51184    0   21  493.43092  303.51184  38.5%     -    0s
H    0     0                     330.2226567  303.51184  8.09%     -    0s
     0     0  310.97580    0   18  330.22266  310.97580  5.83%     -    0s
H    0     0                     322.4726434  310.97580  3.57%     -    0s
     0     0  310.97580    0   21  322.47264  310.97580  3.57%     -    0s
*    0     0               0     314.5212862  314.52129  0.00%     -    0s

Explored 1 nodes (278 simplex iterations) in 0.10 seconds
Thread count was 8 (of 8 available processors)

Solution count 4: 314.521 322.473 330.223 493.431 

Optimal solution found (tolerance 1.00e-04)
Best objective 3.145212862151e+02, best bound 3.145212862151e+02, gap 0.0000%
6 23 18 19 16 15 14
24 20 22 8 10 11
5 2 1 3 4 7 9 13 17
Distance: 314.521286215
Execution time:  0.14249235  minutes
